1 17 111 16 39
2 25 93 8 3
3 107 16 15 42
4 14 71 14 54
5 47 4 14 28
6 6 138 11 42
7 158 33 10 5
8 39 162 18 18
9 72 161 17 59
10 161 162 18 52
11 57 33 14 46
12 15 2 9 1
13 192 11 18 46
14 76 101 9 12
15 130 160 13 51
16 40 74 10 15
17 142 119 9 27
18 51 121 15 0
19 183 17 10 43
20 119 154 13 12
21 29 81 15 32
22 151 132 10 15
23 137 147 14 19
24 155 158 10 49
25 76 90 9 50
